
Gurobi 12.0.2 (win64) logging started Mon Nov  3 17:47:01 2025

Set parameter LogFile to value "resultados DATA_1_n20m05b2d2\instancia_2_log.txt"
Set parameter TimeLimit to value 1800
Gurobi Optimizer version 12.0.2 build v12.0.2rc0 (win64 - Windows 10.0 (19045.2))

CPU model: Intel(R) Core(TM) i5-6300U CPU @ 2.40GHz, instruction set [SSE2|AVX|AVX2]
Thread count: 2 physical cores, 4 logical processors, using up to 4 threads

Non-default parameters:
TimeLimit  1800

Optimize a model with 335 rows, 452 columns and 20428 nonzeros
Model fingerprint: 0x963ef429
Variable types: 0 continuous, 452 integer (452 binary)
Coefficient statistics:
  Matrix range     [1e+00, 1e+00]
  Objective range  [5e-02, 1e-01]
  Bounds range     [1e+00, 1e+00]
  RHS range        [1e+00, 5e+00]
Found heuristic solution: objective 0.5625000
Presolve removed 91 rows and 282 columns
Presolve time: 0.10s
Presolved: 244 rows, 170 columns, 5145 nonzeros
Found heuristic solution: objective 0.2445000
Variable types: 0 continuous, 170 integer (170 binary)

Root relaxation: objective 8.177143e-01, 249 iterations, 0.02 seconds (0.00 work units)

    Nodes    |    Current Node    |     Objective Bounds      |     Work
 Expl Unexpl |  Obj  Depth IntInf | Incumbent    BestBd   Gap | It/Node Time

     0     0    0.81771    0   26    0.56250    0.81771  45.4%     -    0s
H    0     0                       0.5962500    0.81771  37.1%     -    0s
H    0     0                       0.8160000    0.81771  0.21%     -    0s
     0     0    0.81771    0   41    0.81600    0.81771  0.21%     -    0s
     0     0    0.81771    0   28    0.81600    0.81771  0.21%     -    0s
     0     0    0.81692    0   39    0.81600    0.81692  0.11%     -    0s
     0     0     cutoff    0         0.81600    0.81600  0.00%     -    0s

Cutting planes:
  Gomory: 2
  Zero half: 2

Explored 1 nodes (541 simplex iterations) in 0.39 seconds (0.05 work units)
Thread count was 4 (of 4 available processors)

Solution count 7: 0.816 0.816 0.816 ... 0.2445
No other solutions better than 0.816

Optimal solution found (tolerance 1.00e-04)
Best objective 8.160000000000e-01, best bound 8.160000000000e-01, gap 0.0000%
